NAME : speedup25
TYPE : TSP
DIMENSION : 25
EDGE_WEIGHT_TYPE : EUC_2D
NODE_COORD_SECTION
1 183 482
2 61 51
3 129 107
4 244 78
5 13 82
6 288 166
7 4 414
8 299 322
9 318 343
10 443 148
11 172 489
12 86 113
13 66 26
14 359 420
15 109 411
16 377 203
17 317 428
18 129 355
19 173 109
20 119 474
21 80 450
22 426 278
23 164 257
24 217 316
25 378 35
EOF
